outputs/case_174.model.txt
internal_control_implemented = True
audit_procedures_established = True
risk_assessment_report_updated = True
control_procedures_established = True
dedicated_personnel_assigned = True
other_required_matters_established = True
training_held = True
internal_control_executed = True
compliance_ok = True
inspection_refused = False
inspection_obstructed = False
penalty = False
internal_control_established = True
inspection_evaded = False
inspection_cooperation = True